decision_x1=[0,7];
decision_x2=[0,7];
decision_x3=[0,7];
decision_x4=[0,7];
decision_x5=[0,7];
decision_x6=[0,7];
decision_x7=[0,7];
decision_x8=[0,7];
decision_x9=[0,7];
decision_x10=[0,7];
decision_x11=[0,7];
decision_x12=[0,7];
decision_x13=[0,7];
decision_x14=[0,7];
decision_x15=[0,7];
decision_x16=[0,7];
decision_x17=[0,7];
decision_x18=[0,7];
decision_x19=[0,7];
decision_x20=[0,7];
random_y1=[0,7];
random_y2=[0,7];
random_y3=[0,7];
random_y4=[0,7];
random_y5=[0,7];
random_y6=[0,7];
random_y7=[0,7];
random_y8=[0,7];
random_y9=[0,7];
constraint_x2_x1=[
0,0,8|
0,1,7.9|
0,2,3|
0,3,7.6|
0,4,3.2|
0,5,0.36|
0,6,9.5|
0,7,3.7|
1,0,5.2|
1,1,2.3|
1,2,9.6|
1,3,2.4|
1,4,0.31|
1,5,2.2|
1,6,3.7|
1,7,7.4|
2,0,3.9|
2,1,1.1|
2,2,2.4|
2,3,5.5|
2,4,3.4|
2,5,7|
2,6,1.6|
2,7,8.7|
3,0,0.45|
3,1,8|
3,2,0.58|
3,3,4.4|
3,4,9.1|
3,5,4.9|
3,6,6.8|
3,7,3|
4,0,0.27|
4,1,10|
4,2,1.6|
4,3,8.6|
4,4,4.8|
4,5,4.3|
4,6,4.8|
4,7,6.1|
5,0,0.65|
5,1,4|
5,2,3.5|
5,3,0.18|
5,4,9.7|
5,5,3.7|
5,6,9.7|
5,7,9.8|
6,0,7.1|
6,1,1.1|
6,2,5.1|
6,3,5|
6,4,9.9|
6,5,5.4|
6,6,0.5|
6,7,4.8|
7,0,0.27|
7,1,8.7|
7,2,8.4|
7,3,5.3|
7,4,9.8|
7,5,5.2|
7,6,9.4|
7,7,0.63|
];
constraint_x3_x2=[
0,0,8.4|
0,1,0.69|
0,2,2.6|
0,3,5.9|
0,4,6.7|
0,5,0.46|
0,6,0.74|
0,7,3|
1,0,3.4|
1,1,0.74|
1,2,9.7|
1,3,6.6|
1,4,3.3|
1,5,0.76|
1,6,3.2|
1,7,3|
2,0,9.2|
2,1,8.5|
2,2,7.2|
2,3,1.9|
2,4,0.36|
2,5,9.8|
2,6,6.3|
2,7,5.9|
3,0,1.8|
3,1,2.6|
3,2,7.9|
3,3,9.5|
3,4,8.8|
3,5,6|
3,6,5.7|
3,7,8.8|
4,0,4.8|
4,1,8.7|
4,2,1.4|
4,3,0.92|
4,4,4.4|
4,5,2.1|
4,6,8.5|
4,7,7.4|
5,0,0.62|
5,1,8.6|
5,2,4.7|
5,3,6.5|
5,4,4.3|
5,5,6.9|
5,6,1.1|
5,7,2.4|
6,0,3|
6,1,5.4|
6,2,2.6|
6,3,0.19|
6,4,0.0091|
6,5,0.76|
6,6,2.9|
6,7,5.2|
7,0,5.9|
7,1,5.1|
7,2,6.7|
7,3,2.8|
7,4,6.6|
7,5,7.4|
7,6,7.5|
7,7,0.095|
];
constraint_x4_x3=[
0,0,4.1|
0,1,1.7|
0,2,2|
0,3,3.4|
0,4,0.69|
0,5,8.7|
0,6,5.8|
0,7,2.5|
1,0,6.8|
1,1,0.39|
1,2,1.6|
1,3,0.19|
1,4,6.1|
1,5,1.9|
1,6,7.4|
1,7,2|
2,0,7.1|
2,1,9.8|
2,2,7.1|
2,3,9.5|
2,4,4.1|
2,5,8.5|
2,6,2.3|
2,7,2.5|
3,0,7.3|
3,1,0.4|
3,2,1.2|
3,3,8.9|
3,4,0.34|
3,5,0.56|
3,6,2.8|
3,7,0.009|
4,0,7.5|
4,1,8.7|
4,2,3.9|
4,3,6.1|
4,4,1.2|
4,5,2.9|
4,6,7.8|
4,7,9.4|
5,0,2.2|
5,1,3.8|
5,2,9|
5,3,2.8|
5,4,4.6|
5,5,9.2|
5,6,9.4|
5,7,2|
6,0,3.7|
6,1,2.3|
6,2,0.3|
6,3,7.6|
6,4,10|
6,5,0.059|
6,6,1.6|
6,7,6.9|
7,0,4.8|
7,1,6.7|
7,2,1.1|
7,3,0.52|
7,4,0.54|
7,5,7.9|
7,6,2.6|
7,7,2|
];
constraint_x5_x1=[
0,0,6.6|
0,1,2.3|
0,2,2.8|
0,3,3.5|
0,4,0.13|
0,5,0.52|
0,6,8.7|
0,7,7.5|
1,0,8.4|
1,1,4.7|
1,2,1.1|
1,3,4.8|
1,4,0.69|
1,5,7.7|
1,6,5.8|
1,7,7.5|
2,0,1.3|
2,1,5.5|
2,2,1.6|
2,3,6.3|
2,4,4.9|
2,5,6|
2,6,9.9|
2,7,6.4|
3,0,4.7|
3,1,1.6|
3,2,8.1|
3,3,0.8|
3,4,2.9|
3,5,8.9|
3,6,2.3|
3,7,8.7|
4,0,9.8|
4,1,7.3|
4,2,2.4|
4,3,9.3|
4,4,1.1|
4,5,8|
4,6,7.2|
4,7,10|
5,0,6.2|
5,1,7.9|
5,2,7.2|
5,3,3.3|
5,4,6.3|
5,5,9.5|
5,6,3.3|
5,7,7.7|
6,0,5.5|
6,1,1.4|
6,2,1.2|
6,3,1|
6,4,8.6|
6,5,7.9|
6,6,3.1|
6,7,0.57|
7,0,5.7|
7,1,5.1|
7,2,2.1|
7,3,0.82|
7,4,8.4|
7,5,1.5|
7,6,4.1|
7,7,3.8|
];
constraint_x6_x2=[
0,0,6.7|
0,1,5.9|
0,2,1.5|
0,3,4.4|
0,4,3.3|
0,5,8.7|
0,6,2.8|
0,7,8.3|
1,0,3.2|
1,1,0.86|
1,2,2.2|
1,3,9.5|
1,4,1.5|
1,5,0.33|
1,6,6.4|
1,7,6.8|
2,0,3.9|
2,1,9.9|
2,2,1.2|
2,3,4.3|
2,4,6.5|
2,5,2.1|
2,6,2.2|
2,7,5.9|
3,0,6.7|
3,1,8.7|
3,2,8.6|
3,3,7.3|
3,4,0.53|
3,5,9|
3,6,3|
3,7,10|
4,0,9.3|
4,1,9.1|
4,2,3.8|
4,3,6.8|
4,4,0.41|
4,5,8.8|
4,6,6.7|
4,7,5.7|
5,0,2.5|
5,1,2|
5,2,8.5|
5,3,4.4|
5,4,9.3|
5,5,6.4|
5,6,9.8|
5,7,3.5|
6,0,3.5|
6,1,0.76|
6,2,2.8|
6,3,9.3|
6,4,3.6|
6,5,7.2|
6,6,0.92|
6,7,7.9|
7,0,3.9|
7,1,4.2|
7,2,4.8|
7,3,7.2|
7,4,0.88|
7,5,0.89|
7,6,8.8|
7,7,7.1|
];
constraint_x6_x5=[
0,0,0.8|
0,1,1.1|
0,2,6.5|
0,3,7|
0,4,5.7|
0,5,3.4|
0,6,7.4|
0,7,3.4|
1,0,5.8|
1,1,4.9|
1,2,3.6|
1,3,2.3|
1,4,2.7|
1,5,5.1|
1,6,7.9|
1,7,1.7|
2,0,5.8|
2,1,1.6|
2,2,2.2|
2,3,0.51|
2,4,0.76|
2,5,4.4|
2,6,7.1|
2,7,6.1|
3,0,6.2|
3,1,1.2|
3,2,8.7|
3,3,9.4|
3,4,6.9|
3,5,9.8|
3,6,5.1|
3,7,8.9|
4,0,3.7|
4,1,9.6|
4,2,8.4|
4,3,3.3|
4,4,2.2|
4,5,2.6|
4,6,2.1|
4,7,6.2|
5,0,8.1|
5,1,4.7|
5,2,2.4|
5,3,0.39|
5,4,4.7|
5,5,0.45|
5,6,3|
5,7,5.1|
6,0,0.11|
6,1,4.2|
6,2,3.3|
6,3,3.1|
6,4,9.8|
6,5,4.3|
6,6,8.1|
6,7,9.4|
7,0,1.6|
7,1,7.3|
7,2,3.3|
7,3,4|
7,4,2.3|
7,5,7|
7,6,4|
7,7,5.9|
];
constraint_x7_x3=[
0,0,6.3|
0,1,0.82|
0,2,5.4|
0,3,2.8|
0,4,3.6|
0,5,0.68|
0,6,3.2|
0,7,8.2|
1,0,2.8|
1,1,3.8|
1,2,2.6|
1,3,1.2|
1,4,0.075|
1,5,5.5|
1,6,6.9|
1,7,7.9|
2,0,9.8|
2,1,6|
2,2,1.6|
2,3,2.2|
2,4,0.96|
2,5,0.27|
2,6,7.8|
2,7,0.29|
3,0,7.3|
3,1,6|
3,2,0.51|
3,3,8|
3,4,6.9|
3,5,6.5|
3,6,0.58|
3,7,6|
4,0,4.9|
4,1,9.1|
4,2,9.3|
4,3,3.7|
4,4,7.5|
4,5,0.64|
4,6,0.85|
4,7,3.5|
5,0,3.4|
5,1,1.4|
5,2,0.37|
5,3,9.5|
5,4,7|
5,5,5.3|
5,6,1.6|
5,7,9.2|
6,0,9.5|
6,1,1.9|
6,2,4.7|
6,3,4.8|
6,4,2.9|
6,5,9.8|
6,6,5.6|
6,7,4.4|
7,0,6.6|
7,1,2.5|
7,2,4.1|
7,3,1.9|
7,4,7.8|
7,5,6.6|
7,6,9.4|
7,7,0.53|
];
constraint_x7_x6=[
0,0,0.0099|
0,1,2.5|
0,2,2.1|
0,3,0.49|
0,4,1.2|
0,5,8.5|
0,6,0.4|
0,7,1.1|
1,0,4.6|
1,1,6.4|
1,2,0.44|
1,3,0.35|
1,4,2.2|
1,5,2.8|
1,6,2.2|
1,7,6.2|
2,0,0.97|
2,1,3.8|
2,2,8.5|
2,3,4.4|
2,4,2.1|
2,5,0.33|
2,6,9.1|
2,7,5.6|
3,0,2.1|
3,1,9.4|
3,2,3.6|
3,3,9.6|
3,4,1.2|
3,5,5.9|
3,6,5.3|
3,7,8.7|
4,0,5.9|
4,1,9|
4,2,0.73|
4,3,5|
4,4,3.4|
4,5,5.7|
4,6,9|
4,7,1.7|
5,0,7.9|
5,1,0.55|
5,2,4.8|
5,3,1.6|
5,4,2.3|
5,5,5.8|
5,6,9.4|
5,7,1.7|
6,0,2.5|
6,1,1|
6,2,1.3|
6,3,0.45|
6,4,2.5|
6,5,2.8|
6,6,1.9|
6,7,10|
7,0,9.8|
7,1,0.52|
7,2,4.3|
7,3,0.068|
7,4,0.21|
7,5,4.3|
7,6,8.9|
7,7,8.2|
];
constraint_x8_x4=[
0,0,1|
0,1,9.4|
0,2,6.7|
0,3,7.2|
0,4,7|
0,5,5.9|
0,6,8.6|
0,7,0.0028|
1,0,7.1|
1,1,1.2|
1,2,5|
1,3,7|
1,4,2.3|
1,5,9.7|
1,6,3.3|
1,7,1.8|
2,0,9.9|
2,1,6.7|
2,2,7|
2,3,8.8|
2,4,4.8|
2,5,7.4|
2,6,8.1|
2,7,4.9|
3,0,6.8|
3,1,2|
3,2,3.6|
3,3,5.1|
3,4,0.43|
3,5,5.8|
3,6,0.56|
3,7,1.7|
4,0,8.6|
4,1,7.3|
4,2,3.1|
4,3,6.2|
4,4,2.8|
4,5,2.3|
4,6,2.1|
4,7,6.9|
5,0,9.5|
5,1,7.3|
5,2,1.2|
5,3,10|
5,4,3.2|
5,5,3.9|
5,6,7.5|
5,7,5.2|
6,0,3.1|
6,1,0.62|
6,2,9.9|
6,3,5.8|
6,4,7.3|
6,5,9.4|
6,6,3.8|
6,7,3.4|
7,0,7|
7,1,9.1|
7,2,2.5|
7,3,3.8|
7,4,10|
7,5,6.9|
7,6,4.4|
7,7,0.14|
];
constraint_x8_x7=[
0,0,5.6|
0,1,6.9|
0,2,5.8|
0,3,1.7|
0,4,0.18|
0,5,2.1|
0,6,5.6|
0,7,3.7|
1,0,6.2|
1,1,4.6|
1,2,6.6|
1,3,4.5|
1,4,6.9|
1,5,5.3|
1,6,1.1|
1,7,2|
2,0,7.9|
2,1,7.1|
2,2,2.1|
2,3,4.5|
2,4,2.7|
2,5,1.4|
2,6,8.1|
2,7,6.9|
3,0,3.2|
3,1,8.4|
3,2,4.7|
3,3,6|
3,4,2|
3,5,0.35|
3,6,2.6|
3,7,1.3|
4,0,3.2|
4,1,9.2|
4,2,8.4|
4,3,7.8|
4,4,4.1|
4,5,8.6|
4,6,0.88|
4,7,9.2|
5,0,0.17|
5,1,2.9|
5,2,7.2|
5,3,0.51|
5,4,7.3|
5,5,1.2|
5,6,1.1|
5,7,6|
6,0,0.48|
6,1,2.1|
6,2,1.2|
6,3,1.6|
6,4,6.7|
6,5,3.6|
6,6,2|
6,7,8.4|
7,0,9.9|
7,1,1.5|
7,2,1.5|
7,3,4.3|
7,4,0.056|
7,5,9.6|
7,6,0.74|
7,7,0.04|
];
constraint_x9_x5=[
0,0,6.2|
0,1,3.4|
0,2,9.1|
0,3,6.5|
0,4,6|
0,5,5.7|
0,6,1.6|
0,7,1.5|
1,0,7.6|
1,1,5.8|
1,2,0.25|
1,3,8.1|
1,4,0.7|
1,5,3.2|
1,6,4|
1,7,7|
2,0,7|
2,1,1.6|
2,2,2.5|
2,3,7|
2,4,7.7|
2,5,9.4|
2,6,0.74|
2,7,1.6|
3,0,0.18|
3,1,2|
3,2,4.3|
3,3,2.9|
3,4,0.53|
3,5,9.7|
3,6,3.8|
3,7,2.7|
4,0,7|
4,1,4.3|
4,2,9.8|
4,3,4.2|
4,4,7.2|
4,5,7.4|
4,6,5|
4,7,7.7|
5,0,5.7|
5,1,6.3|
5,2,2|
5,3,8.8|
5,4,2.4|
5,5,8.3|
5,6,4.1|
5,7,3.5|
6,0,8.7|
6,1,7.2|
6,2,9.4|
6,3,9.6|
6,4,0.48|
6,5,6.1|
6,6,3.6|
6,7,3|
7,0,0.22|
7,1,9.7|
7,2,9.3|
7,3,7.1|
7,4,9.8|
7,5,8.7|
7,6,2.1|
7,7,5.3|
];
constraint_x10_x6=[
0,0,2.2|
0,1,9.1|
0,2,1.3|
0,3,4.9|
0,4,5|
0,5,4.5|
0,6,1.8|
0,7,3.5|
1,0,7.2|
1,1,0.18|
1,2,2.1|
1,3,4.7|
1,4,9.3|
1,5,2.2|
1,6,7.9|
1,7,7.9|
2,0,3.7|
2,1,2.6|
2,2,9|
2,3,6.6|
2,4,3.3|
2,5,1|
2,6,7.7|
2,7,6.8|
3,0,3.6|
3,1,6.4|
3,2,3.1|
3,3,6.2|
3,4,3.9|
3,5,1.2|
3,6,8|
3,7,8.4|
4,0,8.6|
4,1,8|
4,2,2.3|
4,3,9.8|
4,4,7.7|
4,5,9.2|
4,6,3.3|
4,7,5.5|
5,0,1.8|
5,1,5.4|
5,2,5.5|
5,3,0.66|
5,4,6.6|
5,5,3|
5,6,9.3|
5,7,2|
6,0,4.8|
6,1,6.4|
6,2,5.1|
6,3,2.6|
6,4,8.5|
6,5,2.8|
6,6,8.6|
6,7,4.3|
7,0,6.7|
7,1,3.1|
7,2,3.3|
7,3,5.8|
7,4,2.7|
7,5,2.7|
7,6,8.2|
7,7,7.9|
];
constraint_x10_x9=[
0,0,9.7|
0,1,5.4|
0,2,5.5|
0,3,2.7|
0,4,0.73|
0,5,1.7|
0,6,4.1|
0,7,6.4|
1,0,0.52|
1,1,8.8|
1,2,4.9|
1,3,7.8|
1,4,2.5|
1,5,9.6|
1,6,6.1|
1,7,0.93|
2,0,2.1|
2,1,0.9|
2,2,1|
2,3,4|
2,4,3.4|
2,5,2.6|
2,6,4.7|
2,7,0.43|
3,0,5.9|
3,1,7.8|
3,2,1.4|
3,3,3.1|
3,4,7.3|
3,5,3.4|
3,6,9.4|
3,7,6.6|
4,0,7.6|
4,1,7.1|
4,2,8|
4,3,1.7|
4,4,9|
4,5,9.5|
4,6,0.43|
4,7,8.3|
5,0,4.9|
5,1,4|
5,2,7.4|
5,3,6.7|
5,4,6.2|
5,5,0.79|
5,6,7.7|
5,7,3.6|
6,0,9.5|
6,1,0.62|
6,2,9.1|
6,3,7.2|
6,4,1.3|
6,5,5|
6,6,0.74|
6,7,3.3|
7,0,7.4|
7,1,8.4|
7,2,9.1|
7,3,2.4|
7,4,9.9|
7,5,7.9|
7,6,1.4|
7,7,8|
];
constraint_x11_x7=[
0,0,9.1|
0,1,5.6|
0,2,5.1|
0,3,4|
0,4,9.1|
0,5,2.7|
0,6,7.9|
0,7,1.9|
1,0,1.4|
1,1,4.7|
1,2,8.4|
1,3,0.49|
1,4,0.65|
1,5,0.9|
1,6,9.6|
1,7,3.2|
2,0,4.6|
2,1,2.3|
2,2,3.9|
2,3,9.3|
2,4,0.093|
2,5,2.8|
2,6,4.1|
2,7,3.3|
3,0,0.54|
3,1,0.74|
3,2,9.2|
3,3,8.2|
3,4,6.8|
3,5,7.3|
3,6,0.21|
3,7,8.6|
4,0,4.4|
4,1,6.7|
4,2,9.5|
4,3,3.5|
4,4,4.6|
4,5,5.4|
4,6,8.7|
4,7,1.3|
5,0,2.2|
5,1,3.8|
5,2,3.5|
5,3,2.8|
5,4,8.8|
5,5,6|
5,6,6.4|
5,7,2.9|
6,0,2.5|
6,1,6.8|
6,2,5.9|
6,3,0.026|
6,4,6.6|
6,5,2|
6,6,0.46|
6,7,6.1|
7,0,7.6|
7,1,7.3|
7,2,9.6|
7,3,1.4|
7,4,0.014|
7,5,1.9|
7,6,9.7|
7,7,1.4|
];
constraint_x11_x10=[
0,0,3.2|
0,1,7.7|
0,2,2.2|
0,3,6.6|
0,4,3.8|
0,5,0.042|
0,6,6|
0,7,1.3|
1,0,8.5|
1,1,9.7|
1,2,1.3|
1,3,3.2|
1,4,9.7|
1,5,6.6|
1,6,8.3|
1,7,0.7|
2,0,3.5|
2,1,7.3|
2,2,5|
2,3,7.5|
2,4,3.2|
2,5,7.3|
2,6,4.4|
2,7,9.5|
3,0,2.5|
3,1,7.4|
3,2,3|
3,3,0.46|
3,4,1.6|
3,5,5|
3,6,4.4|
3,7,7.2|
4,0,9.8|
4,1,7.5|
4,2,3.4|
4,3,6.8|
4,4,2.9|
4,5,4.6|
4,6,4.3|
4,7,0.36|
5,0,3.2|
5,1,6.8|
5,2,1|
5,3,2.2|
5,4,7.3|
5,5,4.2|
5,6,0.78|
5,7,5.4|
6,0,1.7|
6,1,0.93|
6,2,1.8|
6,3,3.5|
6,4,7.8|
6,5,8.1|
6,6,2.9|
6,7,1.2|
7,0,3.1|
7,1,4|
7,2,1.4|
7,3,4.6|
7,4,2.7|
7,5,0.53|
7,6,0.48|
7,7,1.2|
];
constraint_x12_x8=[
0,0,1|
0,1,3.1|
0,2,3.1|
0,3,5|
0,4,6|
0,5,6.2|
0,6,0.48|
0,7,8.5|
1,0,8.4|
1,1,9|
1,2,5.7|
1,3,0.78|
1,4,0.83|
1,5,1.2|
1,6,9.2|
1,7,7.7|
2,0,6.6|
2,1,5.7|
2,2,8.2|
2,3,9.3|
2,4,4.1|
2,5,5.3|
2,6,0.54|
2,7,2.8|
3,0,9.3|
3,1,1.2|
3,2,1.7|
3,3,0.86|
3,4,3.1|
3,5,1.5|
3,6,6.7|
3,7,7.7|
4,0,9.9|
4,1,5.4|
4,2,1.4|
4,3,9.5|
4,4,7.2|
4,5,5.3|
4,6,2.1|
4,7,6.3|
5,0,2.9|
5,1,7.8|
5,2,1.4|
5,3,8.7|
5,4,0.56|
5,5,2|
5,6,3.2|
5,7,8.8|
6,0,9|
6,1,2.9|
6,2,6.1|
6,3,5.4|
6,4,5.2|
6,5,4.3|
6,6,8.1|
6,7,7.1|
7,0,4.1|
7,1,9.2|
7,2,2.7|
7,3,6.2|
7,4,2.6|
7,5,1.5|
7,6,1.9|
7,7,6.7|
];
constraint_x12_x11=[
0,0,2.8|
0,1,9.8|
0,2,0.6|
0,3,6.2|
0,4,5.3|
0,5,9.8|
0,6,0.021|
0,7,5.8|
1,0,3.7|
1,1,4.5|
1,2,9.1|
1,3,4.9|
1,4,2.3|
1,5,4.2|
1,6,5.1|
1,7,2.1|
2,0,4.3|
2,1,7.7|
2,2,5|
2,3,6.1|
2,4,6.9|
2,5,6.7|
2,6,3.9|
2,7,3.2|
3,0,4.9|
3,1,4.1|
3,2,8.4|
3,3,7.8|
3,4,3.8|
3,5,8.5|
3,6,8|
3,7,7.1|
4,0,8.8|
4,1,8.7|
4,2,5|
4,3,9.4|
4,4,6.2|
4,5,1|
4,6,6.7|
4,7,2.1|
5,0,9.8|
5,1,7.7|
5,2,4.9|
5,3,7.7|
5,4,9.3|
5,5,5.1|
5,6,3.7|
5,7,9.6|
6,0,2|
6,1,8.3|
6,2,2.5|
6,3,0.62|
6,4,2.6|
6,5,4.8|
6,6,7|
6,7,6.2|
7,0,1.7|
7,1,4.5|
7,2,1.7|
7,3,3.6|
7,4,5.5|
7,5,0.94|
7,6,2.6|
7,7,5.6|
];
constraint_x13_x9=[
0,0,5.1|
0,1,7.7|
0,2,7.9|
0,3,8.5|
0,4,6.4|
0,5,0.17|
0,6,3.9|
0,7,4.5|
1,0,5.2|
1,1,0.25|
1,2,5.4|
1,3,3.4|
1,4,8.4|
1,5,5.2|
1,6,4.4|
1,7,1.7|
2,0,6.1|
2,1,0.57|
2,2,3.8|
2,3,9.8|
2,4,4.2|
2,5,1.1|
2,6,5.5|
2,7,0.92|
3,0,7.4|
3,1,0.88|
3,2,2.4|
3,3,4.4|
3,4,1.2|
3,5,1.7|
3,6,2.2|
3,7,2.4|
4,0,7.5|
4,1,3.2|
4,2,8|
4,3,4.8|
4,4,4.7|
4,5,0.97|
4,6,8.2|
4,7,1.9|
5,0,2.4|
5,1,4.2|
5,2,4.6|
5,3,1.9|
5,4,3.6|
5,5,0.33|
5,6,9.1|
5,7,4.4|
6,0,4.8|
6,1,1.6|
6,2,4.5|
6,3,6.7|
6,4,4.1|
6,5,3.8|
6,6,8.2|
6,7,6.8|
7,0,2.4|
7,1,5.6|
7,2,3.8|
7,3,0.99|
7,4,6.4|
7,5,9.3|
7,6,3.7|
7,7,2.5|
];
constraint_x14_x10=[
0,0,3.1|
0,1,6.1|
0,2,0.46|
0,3,9.7|
0,4,9.8|
0,5,0.98|
0,6,1.1|
0,7,2.3|
1,0,1.4|
1,1,1.3|
1,2,6.1|
1,3,0.46|
1,4,8.4|
1,5,4.3|
1,6,2.4|
1,7,2.4|
2,0,7.3|
2,1,0.59|
2,2,1.3|
2,3,2|
2,4,6.7|
2,5,6.6|
2,6,6.9|
2,7,8.3|
3,0,9|
3,1,8.5|
3,2,9.8|
3,3,0.25|
3,4,0.3|
3,5,5.9|
3,6,7.4|
3,7,4.5|
4,0,8.8|
4,1,2.3|
4,2,9.9|
4,3,9.3|
4,4,3.4|
4,5,5.3|
4,6,5.4|
4,7,8.5|
5,0,7.7|
5,1,0.38|
5,2,4.3|
5,3,1.7|
5,4,4.8|
5,5,3|
5,6,9.8|
5,7,2|
6,0,1.9|
6,1,3.3|
6,2,6.3|
6,3,8.8|
6,4,4.6|
6,5,6.5|
6,6,2.6|
6,7,4.2|
7,0,9.8|
7,1,8.8|
7,2,6.1|
7,3,6.7|
7,4,8|
7,5,5.7|
7,6,8.2|
7,7,1.6|
];
constraint_x14_x13=[
0,0,3.6|
0,1,3.9|
0,2,4.7|
0,3,3.1|
0,4,8.6|
0,5,2|
0,6,0.35|
0,7,7|
1,0,3.1|
1,1,5.4|
1,2,3.9|
1,3,0.18|
1,4,0.44|
1,5,2.7|
1,6,8.4|
1,7,2.3|
2,0,5.9|
2,1,8.6|
2,2,6.3|
2,3,9.5|
2,4,9.9|
2,5,8.3|
2,6,2.8|
2,7,8.1|
3,0,9.1|
3,1,9.7|
3,2,2.7|
3,3,0.72|
3,4,8.3|
3,5,0.44|
3,6,9.3|
3,7,6.5|
4,0,4|
4,1,2.5|
4,2,0.82|
4,3,5.7|
4,4,7.5|
4,5,0.33|
4,6,1|
4,7,7|
5,0,6.9|
5,1,6.4|
5,2,3.5|
5,3,7.9|
5,4,9|
5,5,0.75|
5,6,2.2|
5,7,6|
6,0,2.6|
6,1,9.3|
6,2,2.2|
6,3,6.7|
6,4,5.8|
6,5,3|
6,6,1.9|
6,7,4.7|
7,0,3|
7,1,8.7|
7,2,4.3|
7,3,0.84|
7,4,9.8|
7,5,4|
7,6,7.5|
7,7,9.6|
];
constraint_x15_x11=[
0,0,6.4|
0,1,4.9|
0,2,4.2|
0,3,8.4|
0,4,5.3|
0,5,6.7|
0,6,3.1|
0,7,1.4|
1,0,4.5|
1,1,2.3|
1,2,6.8|
1,3,1.2|
1,4,3.9|
1,5,7.7|
1,6,9.2|
1,7,7.4|
2,0,4.5|
2,1,2.7|
2,2,3.5|
2,3,7|
2,4,2.7|
2,5,7|
2,6,6.2|
2,7,2.9|
3,0,4.1|
3,1,1|
3,2,1.3|
3,3,4.6|
3,4,3|
3,5,3.2|
3,6,3.7|
3,7,8|
4,0,1.8|
4,1,6.7|
4,2,1.6|
4,3,6.7|
4,4,9.1|
4,5,8.7|
4,6,8.5|
4,7,4.6|
5,0,0.93|
5,1,4.8|
5,2,6.6|
5,3,9.7|
5,4,0.041|
5,5,4.7|
5,6,9.8|
5,7,4.8|
6,0,7.4|
6,1,0.65|
6,2,9.4|
6,3,0.79|
6,4,0.84|
6,5,1.2|
6,6,7.6|
6,7,8.2|
7,0,9.4|
7,1,7.4|
7,2,3.2|
7,3,7.6|
7,4,0.4|
7,5,2.8|
7,6,3.4|
7,7,4.2|
];
constraint_x15_x14=[
0,0,6.1|
0,1,8.9|
0,2,2|
0,3,6.7|
0,4,6.2|
0,5,5.5|
0,6,6.3|
0,7,8.5|
1,0,5.5|
1,1,4.8|
1,2,3.6|
1,3,8.4|
1,4,5.6|
1,5,2.3|
1,6,4.4|
1,7,5.8|
2,0,8.8|
2,1,5.3|
2,2,4.9|
2,3,3.2|
2,4,5.8|
2,5,4|
2,6,4|
2,7,1.8|
3,0,1.4|
3,1,8.4|
3,2,5.5|
3,3,4.5|
3,4,9.1|
3,5,3.8|
3,6,4.9|
3,7,5|
4,0,0.59|
4,1,6|
4,2,6.3|
4,3,6.7|
4,4,2.7|
4,5,9.3|
4,6,4.1|
4,7,3.2|
5,0,7.6|
5,1,9.6|
5,2,5.4|
5,3,6.7|
5,4,3.2|
5,5,0.18|
5,6,9.7|
5,7,1.7|
6,0,3.3|
6,1,3|
6,2,1.2|
6,3,0.42|
6,4,0.1|
6,5,8.9|
6,6,7.5|
6,7,6|
7,0,0.073|
7,1,0.041|
7,2,1.4|
7,3,9.2|
7,4,2.2|
7,5,1.4|
7,6,7.6|
7,7,1.8|
];
constraint_x16_x12=[
0,0,2.8|
0,1,8.6|
0,2,9|
0,3,2.7|
0,4,5.3|
0,5,1.6|
0,6,4.3|
0,7,4.5|
1,0,4.5|
1,1,0.071|
1,2,3.4|
1,3,5.9|
1,4,2.6|
1,5,5.7|
1,6,6.3|
1,7,8.5|
2,0,3.5|
2,1,4.5|
2,2,1.4|
2,3,0.96|
2,4,9.7|
2,5,1.7|
2,6,1.3|
2,7,4.6|
3,0,0.99|
3,1,7.5|
3,2,4.1|
3,3,9.8|
3,4,0.16|
3,5,9.1|
3,6,7.5|
3,7,1.2|
4,0,5.5|
4,1,7.9|
4,2,4.4|
4,3,9.4|
4,4,1.2|
4,5,6.3|
4,6,2|
4,7,3.9|
5,0,3|
5,1,1.7|
5,2,0.0007|
5,3,4.5|
5,4,7.8|
5,5,7.1|
5,6,6.1|
5,7,9.6|
6,0,3.1|
6,1,3.9|
6,2,2.9|
6,3,8.5|
6,4,2.5|
6,5,4.6|
6,6,7.1|
6,7,9.3|
7,0,1.1|
7,1,9.6|
7,2,6.8|
7,3,2.3|
7,4,9.9|
7,5,1.5|
7,6,6.1|
7,7,9.2|
];
constraint_x16_x15=[
0,0,6.2|
0,1,2.7|
0,2,5.6|
0,3,4.3|
0,4,3.5|
0,5,5|
0,6,3|
0,7,2.8|
1,0,5.2|
1,1,2.7|
1,2,5.8|
1,3,4.8|
1,4,4.5|
1,5,6.8|
1,6,6.1|
1,7,8.5|
2,0,1.2|
2,1,6|
2,2,3.8|
2,3,2.9|
2,4,9.6|
2,5,1.4|
2,6,4.5|
2,7,4.4|
3,0,5.4|
3,1,5.7|
3,2,2.3|
3,3,7.5|
3,4,3.7|
3,5,2.1|
3,6,1.5|
3,7,9.5|
4,0,1.3|
4,1,3.2|
4,2,7.4|
4,3,7.3|
4,4,0.2|
4,5,3.8|
4,6,6|
4,7,6.6|
5,0,5.6|
5,1,8.7|
5,2,5|
5,3,1.3|
5,4,8.7|
5,5,5|
5,6,9.6|
5,7,8.9|
6,0,0.032|
6,1,3.2|
6,2,0.8|
6,3,8.4|
6,4,2.5|
6,5,5.5|
6,6,5.3|
6,7,7.5|
7,0,9.6|
7,1,4.1|
7,2,3.4|
7,3,7.8|
7,4,4.2|
7,5,9.2|
7,6,9.3|
7,7,2.3|
];
constraint_x17_x13=[
0,0,6.2|
0,1,1.9|
0,2,5.9|
0,3,1.5|
0,4,4.5|
0,5,1.1|
0,6,7.5|
0,7,1.5|
1,0,9.8|
1,1,7.1|
1,2,1.7|
1,3,2|
1,4,4|
1,5,7.3|
1,6,4.7|
1,7,7.1|
2,0,2.9|
2,1,3.1|
2,2,1.6|
2,3,5.6|
2,4,2.9|
2,5,4.9|
2,6,6.9|
2,7,2.8|
3,0,1.2|
3,1,1.5|
3,2,4|
3,3,4.8|
3,4,1.2|
3,5,1.2|
3,6,0.62|
3,7,7.3|
4,0,5.4|
4,1,8.1|
4,2,2.4|
4,3,0.95|
4,4,2.4|
4,5,5.2|
4,6,4|
4,7,6.8|
5,0,2.4|
5,1,6|
5,2,9.4|
5,3,5.4|
5,4,10|
5,5,0.68|
5,6,9.5|
5,7,7.9|
6,0,7.9|
6,1,0.82|
6,2,2|
6,3,7.4|
6,4,1.3|
6,5,2.9|
6,6,5.6|
6,7,8.3|
7,0,3.1|
7,1,1.5|
7,2,8.4|
7,3,6.9|
7,4,4.3|
7,5,1.4|
7,6,6.7|
7,7,6.6|
];
constraint_x18_x14=[
0,0,6.5|
0,1,7.1|
0,2,7.4|
0,3,2.6|
0,4,3|
0,5,0.25|
0,6,4.5|
0,7,6.5|
1,0,5.8|
1,1,6.1|
1,2,7.9|
1,3,0.38|
1,4,4.5|
1,5,0.71|
1,6,7.5|
1,7,6.2|
2,0,6.9|
2,1,7.3|
2,2,4.2|
2,3,0.96|
2,4,5.5|
2,5,6.4|
2,6,3.1|
2,7,6|
3,0,4.7|
3,1,6.2|
3,2,4.7|
3,3,2.9|
3,4,9.9|
3,5,6.7|
3,6,4.7|
3,7,1.8|
4,0,4.1|
4,1,0.29|
4,2,9|
4,3,0.24|
4,4,4.9|
4,5,0.35|
4,6,5.5|
4,7,3.8|
5,0,8.5|
5,1,9.1|
5,2,7.1|
5,3,9.3|
5,4,8.7|
5,5,0.49|
5,6,3.2|
5,7,2.3|
6,0,4.8|
6,1,6.7|
6,2,2.6|
6,3,4.4|
6,4,5.9|
6,5,8.9|
6,6,8.9|
6,7,9.6|
7,0,3.9|
7,1,9.6|
7,2,6.7|
7,3,2.8|
7,4,1.3|
7,5,5.1|
7,6,8.5|
7,7,4.8|
];
constraint_x19_x15=[
0,0,6.9|
0,1,5.5|
0,2,6.9|
0,3,4.8|
0,4,8.3|
0,5,1.3|
0,6,5.6|
0,7,1.3|
1,0,8.8|
1,1,0.27|
1,2,5.7|
1,3,2.2|
1,4,9.7|
1,5,9.7|
1,6,6.3|
1,7,2.1|
2,0,6.7|
2,1,5.2|
2,2,3.4|
2,3,9.3|
2,4,5.4|
2,5,7.1|
2,6,6.3|
2,7,9.5|
3,0,6|
3,1,5.9|
3,2,2.9|
3,3,9|
3,4,0.42|
3,5,0.9|
3,6,3.6|
3,7,1.9|
4,0,7.1|
4,1,6.2|
4,2,7.9|
4,3,8.1|
4,4,4.9|
4,5,4.9|
4,6,9.5|
4,7,2.6|
5,0,2.9|
5,1,2|
5,2,9.9|
5,3,6.6|
5,4,5.4|
5,5,0.033|
5,6,2.4|
5,7,5.3|
6,0,6.6|
6,1,4.8|
6,2,8.2|
6,3,2.8|
6,4,9.2|
6,5,2.6|
6,6,4.4|
6,7,1.1|
7,0,9.7|
7,1,9.2|
7,2,6.2|
7,3,6.7|
7,4,5.7|
7,5,2.8|
7,6,8.1|
7,7,1.2|
];
constraint_x20_x16=[
0,0,3.1|
0,1,8.7|
0,2,6.3|
0,3,4.4|
0,4,6.3|
0,5,9.9|
0,6,1.5|
0,7,5.6|
1,0,3|
1,1,2.9|
1,2,5|
1,3,9.2|
1,4,8.2|
1,5,9.7|
1,6,6.9|
1,7,5.3|
2,0,9.4|
2,1,9.5|
2,2,6|
2,3,0.99|
2,4,8.5|
2,5,1.3|
2,6,4.2|
2,7,2.2|
3,0,1.1|
3,1,4.7|
3,2,5.6|
3,3,1.8|
3,4,9.6|
3,5,0.83|
3,6,0.32|
3,7,8.4|
4,0,8|
4,1,5.8|
4,2,2.3|
4,3,5.1|
4,4,6.7|
4,5,0.064|
4,6,0.27|
4,7,3.7|
5,0,4.1|
5,1,9|
5,2,2.5|
5,3,1.8|
5,4,2.5|
5,5,1.6|
5,6,7.6|
5,7,0.78|
6,0,2.2|
6,1,0.37|
6,2,3|
6,3,6.6|
6,4,7.7|
6,5,1.7|
6,6,2.8|
6,7,7.7|
7,0,4.7|
7,1,7.7|
7,2,6.1|
7,3,6.9|
7,4,6.2|
7,5,2|
7,6,0.062|
7,7,4.8|
];
constraint_x1_y1=[
0,0,9.4|
0,1,1.7|
0,2,3.6|
0,3,8.6|
0,4,3.4|
0,5,1.4|
0,6,4.9|
0,7,7.6|
1,0,7.5|
1,1,3.1|
1,2,1.2|
1,3,1.1|
1,4,2.8|
1,5,5.5|
1,6,0.34|
1,7,4.7|
2,0,3.3|
2,1,2.8|
2,2,6.4|
2,3,3.6|
2,4,8.2|
2,5,2.6|
2,6,8.3|
2,7,6.4|
3,0,1.8|
3,1,6.6|
3,2,9.1|
3,3,1|
3,4,0.2|
3,5,6.3|
3,6,2.6|
3,7,6.4|
4,0,3.6|
4,1,7|
4,2,9.7|
4,3,1.8|
4,4,2.6|
4,5,3.1|
4,6,0.55|
4,7,8.2|
5,0,9.6|
5,1,1.5|
5,2,3.5|
5,3,9.9|
5,4,3|
5,5,5.3|
5,6,9|
5,7,4.4|
6,0,2.2|
6,1,0.62|
6,2,6.5|
6,3,3.8|
6,4,7.2|
6,5,8|
6,6,7.2|
6,7,3.4|
7,0,0.26|
7,1,4|
7,2,2.2|
7,3,9.6|
7,4,4.1|
7,5,4.6|
7,6,8.6|
7,7,1.7|
];
constraint_x2_y2=[
0,0,4.8|
0,1,4|
0,2,6.2|
0,3,0.89|
0,4,6|
0,5,9.2|
0,6,0.56|
0,7,6.1|
1,0,6.9|
1,1,2.1|
1,2,3.1|
1,3,3.2|
1,4,8.2|
1,5,6.3|
1,6,3.3|
1,7,5.2|
2,0,1.7|
2,1,4.2|
2,2,9.5|
2,3,0.66|
2,4,2.7|
2,5,8.2|
2,6,1.2|
2,7,5.8|
3,0,2|
3,1,6.7|
3,2,7.7|
3,3,7.2|
3,4,1.4|
3,5,8.2|
3,6,0.84|
3,7,5.6|
4,0,3.4|
4,1,9.8|
4,2,4.6|
4,3,9.6|
4,4,1.1|
4,5,5|
4,6,5.6|
4,7,1.1|
5,0,9.7|
5,1,10|
5,2,1|
5,3,4.6|
5,4,1.9|
5,5,3.6|
5,6,3|
5,7,8.7|
6,0,6.2|
6,1,3.7|
6,2,0.69|
6,3,9.4|
6,4,7.6|
6,5,5.8|
6,6,5.6|
6,7,2.6|
7,0,2.3|
7,1,9.9|
7,2,0.069|
7,3,0.6|
7,4,1.1|
7,5,0.45|
7,6,5.3|
7,7,3|
];
constraint_x3_y3=[
0,0,1.3|
0,1,5.8|
0,2,0.63|
0,3,5|
0,4,3.5|
0,5,5.1|
0,6,5.8|
0,7,0.073|
1,0,5.7|
1,1,3.7|
1,2,3|
1,3,4.2|
1,4,1.1|
1,5,9.7|
1,6,0.45|
1,7,1.5|
2,0,4.2|
2,1,2.7|
2,2,2.7|
2,3,8.5|
2,4,1.1|
2,5,4|
2,6,5.4|
2,7,7.5|
3,0,0.63|
3,1,6.2|
3,2,8.5|
3,3,9.8|
3,4,3.6|
3,5,4.2|
3,6,7|
3,7,6.2|
4,0,1.4|
4,1,0.56|
4,2,3|
4,3,5.5|
4,4,0.44|
4,5,2.6|
4,6,4.6|
4,7,5.1|
5,0,7.2|
5,1,2.5|
5,2,0.9|
5,3,4.8|
5,4,1.4|
5,5,7.9|
5,6,5.4|
5,7,7.2|
6,0,2.3|
6,1,9.3|
6,2,2|
6,3,2.9|
6,4,9|
6,5,6.9|
6,6,3.6|
6,7,9.1|
7,0,5.4|
7,1,9.6|
7,2,3|
7,3,9.7|
7,4,0.076|
7,5,4|
7,6,1.4|
7,7,0.2|
];
constraint_x4_y4=[
0,0,1.1|
0,1,3.5|
0,2,6.3|
0,3,4.9|
0,4,7.9|
0,5,3.8|
0,6,8.6|
0,7,9.8|
1,0,5.4|
1,1,8|
1,2,10|
1,3,5.1|
1,4,2.3|
1,5,1.6|
1,6,0.7|
1,7,2.5|
2,0,9.2|
2,1,3|
2,2,9.4|
2,3,1.9|
2,4,9.1|
2,5,5.5|
2,6,8.2|
2,7,0.021|
3,0,1.7|
3,1,8.8|
3,2,4.9|
3,3,6.5|
3,4,3.4|
3,5,4.6|
3,6,9.5|
3,7,6.6|
4,0,9.1|
4,1,1.8|
4,2,5.3|
4,3,2.9|
4,4,4.4|
4,5,6.1|
4,6,8|
4,7,3|
5,0,2.6|
5,1,3.7|
5,2,8.6|
5,3,1.6|
5,4,5.7|
5,5,5.4|
5,6,3.1|
5,7,8.4|
6,0,9.1|
6,1,1.5|
6,2,5.8|
6,3,8.9|
6,4,7.4|
6,5,1.7|
6,6,1.7|
6,7,5.3|
7,0,3.8|
7,1,5.4|
7,2,8.8|
7,3,9.4|
7,4,5.8|
7,5,8.3|
7,6,8.2|
7,7,4.8|
];
constraint_x5_y5=[
0,0,3.1|
0,1,7.1|
0,2,1.3|
0,3,7.4|
0,4,2.4|
0,5,0.92|
0,6,2.9|
0,7,2.5|
1,0,2.4|
1,1,7.5|
1,2,1.5|
1,3,0.32|
1,4,0.99|
1,5,3.9|
1,6,7.9|
1,7,8.2|
2,0,1.6|
2,1,1.6|
2,2,5.4|
2,3,3.7|
2,4,3|
2,5,5.4|
2,6,5.1|
2,7,3.2|
3,0,3.8|
3,1,0.23|
3,2,3.1|
3,3,5.6|
3,4,2|
3,5,8.6|
3,6,3.7|
3,7,9.4|
4,0,2.4|
4,1,7.1|
4,2,3.5|
4,3,5.1|
4,4,9.9|
4,5,8|
4,6,0.37|
4,7,8.3|
5,0,9.8|
5,1,6.2|
5,2,3.3|
5,3,4.2|
5,4,1.9|
5,5,1.7|
5,6,2.3|
5,7,2.3|
6,0,4.8|
6,1,0.12|
6,2,2.8|
6,3,0.055|
6,4,1.9|
6,5,3.5|
6,6,6.5|
6,7,5|
7,0,0.035|
7,1,3.2|
7,2,6|
7,3,3.5|
7,4,0.14|
7,5,3.9|
7,6,4.1|
7,7,2|
];
constraint_x6_y6=[
0,0,3.8|
0,1,9.6|
0,2,7.9|
0,3,4.5|
0,4,4.8|
0,5,6.8|
0,6,2.7|
0,7,3.9|
1,0,5.4|
1,1,2.7|
1,2,1|
1,3,6.2|
1,4,2.4|
1,5,1.8|
1,6,4.3|
1,7,3|
2,0,5.1|
2,1,6.1|
2,2,0.11|
2,3,6.2|
2,4,6.6|
2,5,8.4|
2,6,9.2|
2,7,2.7|
3,0,7|
3,1,6.5|
3,2,6|
3,3,9|
3,4,2.5|
3,5,1.4|
3,6,7.6|
3,7,9.3|
4,0,8.2|
4,1,6.1|
4,2,6.2|
4,3,2.5|
4,4,1|
4,5,6.2|
4,6,7.3|
4,7,5.6|
5,0,5.4|
5,1,8.7|
5,2,3.5|
5,3,3.3|
5,4,6.5|
5,5,5.8|
5,6,4.6|
5,7,1.2|
6,0,6.3|
6,1,6.6|
6,2,7.9|
6,3,0.88|
6,4,2.9|
6,5,0.8|
6,6,3.2|
6,7,6.1|
7,0,2.8|
7,1,7.4|
7,2,3.1|
7,3,8.5|
7,4,4.4|
7,5,9.5|
7,6,2.5|
7,7,5.2|
];
constraint_x7_y7=[
0,0,0.007|
0,1,9.1|
0,2,1|
0,3,5.3|
0,4,2.4|
0,5,9.2|
0,6,8|
0,7,4.4|
1,0,5.7|
1,1,7.6|
1,2,6.1|
1,3,5.1|
1,4,4.8|
1,5,0.24|
1,6,3.4|
1,7,9.1|
2,0,1.7|
2,1,1.7|
2,2,7.6|
2,3,0.15|
2,4,1|
2,5,0.32|
2,6,1.7|
2,7,3.3|
3,0,2.2|
3,1,2|
3,2,2.4|
3,3,2.2|
3,4,9.8|
3,5,4.1|
3,6,8.6|
3,7,9.1|
4,0,8|
4,1,6.3|
4,2,3.1|
4,3,0.26|
4,4,8.5|
4,5,6.6|
4,6,5.1|
4,7,3.9|
5,0,4.8|
5,1,1.4|
5,2,5.2|
5,3,3.3|
5,4,7.6|
5,5,6.3|
5,6,4.1|
5,7,1.6|
6,0,2.5|
6,1,10|
6,2,5.6|
6,3,4.4|
6,4,2.2|
6,5,7.3|
6,6,4.7|
6,7,4.1|
7,0,1.1|
7,1,6.3|
7,2,4|
7,3,7.1|
7,4,4.7|
7,5,3.8|
7,6,3.6|
7,7,1.1|
];
constraint_x8_y8=[
0,0,1.9|
0,1,7.1|
0,2,9.5|
0,3,8.6|
0,4,6.6|
0,5,6.9|
0,6,3.2|
0,7,2.3|
1,0,2.2|
1,1,1.6|
1,2,8.7|
1,3,7.7|
1,4,4|
1,5,5.5|
1,6,1.9|
1,7,8.6|
2,0,3.5|
2,1,2|
2,2,1.9|
2,3,1.5|
2,4,9.2|
2,5,7.3|
2,6,7.7|
2,7,5.8|
3,0,6.3|
3,1,0.71|
3,2,1.5|
3,3,6.7|
3,4,0.022|
3,5,8.3|
3,6,6.7|
3,7,9.3|
4,0,0.15|
4,1,6.2|
4,2,7.7|
4,3,3|
4,4,7.8|
4,5,0.86|
4,6,9|
4,7,4|
5,0,7.1|
5,1,5.9|
5,2,9.8|
5,3,2.3|
5,4,9.3|
5,5,1.3|
5,6,4.8|
5,7,0.35|
6,0,0.4|
6,1,0.32|
6,2,3.7|
6,3,5.5|
6,4,4.5|
6,5,0.22|
6,6,6.1|
6,7,8.4|
7,0,8.1|
7,1,3.4|
7,2,3.6|
7,3,4.7|
7,4,4.6|
7,5,5.4|
7,6,1.4|
7,7,6.9|
];
constraint_x9_y9=[
0,0,0.61|
0,1,5.1|
0,2,9.6|
0,3,9.5|
0,4,8.4|
0,5,9.2|
0,6,4.3|
0,7,0.076|
1,0,5.8|
1,1,8.4|
1,2,6.2|
1,3,1.2|
1,4,6.4|
1,5,4.7|
1,6,2|
1,7,0.45|
2,0,1.1|
2,1,5.2|
2,2,9.4|
2,3,8.2|
2,4,9|
2,5,3.3|
2,6,4.1|
2,7,2.4|
3,0,1.2|
3,1,2.5|
3,2,8.8|
3,3,9.1|
3,4,3.5|
3,5,4.7|
3,6,4.8|
3,7,6.7|
4,0,7.8|
4,1,6.3|
4,2,6.2|
4,3,8.6|
4,4,4.1|
4,5,7.9|
4,6,2.1|
4,7,3.8|
5,0,0.85|
5,1,6.7|
5,2,4.9|
5,3,1.2|
5,4,0.69|
5,5,0.65|
5,6,2.8|
5,7,6.7|
6,0,6.8|
6,1,5.9|
6,2,0.21|
6,3,6.8|
6,4,0.33|
6,5,2.8|
6,6,1.9|
6,7,2.7|
7,0,1.2|
7,1,5|
7,2,1.9|
7,3,8.1|
7,4,9.8|
7,5,1.3|
7,6,4|
7,7,9.1|
];
initial_distribution_y1=[0.17,0.1,0.12,0.2,0.047,0.0052,0.17,0.19];
initial_distribution_y2=[0.21,0.23,0.0097,0.017,0.23,0.25,0.038,0.017];
initial_distribution_y3=[0.17,0.19,0.031,0.13,0.17,0.099,0.029,0.19];
initial_distribution_y4=[0.13,0.01,0.19,0.2,0.17,0.03,0.19,0.073];
initial_distribution_y5=[0.28,0.06,0.011,0.092,0.022,0.13,0.22,0.19];
initial_distribution_y6=[0.015,0.2,0.19,0.096,0.2,0.078,0.19,0.028];
initial_distribution_y7=[0.27,0.076,0.09,0.14,0.0033,0.0054,0.26,0.16];
initial_distribution_y8=[0.23,0.2,0.034,0.085,0.13,0.049,0.04,0.23];
initial_distribution_y9=[0.17,0.2,0.07,0.2,0.13,0.089,0.022,0.12];
transition_y1=[
0.21,0.081,0.13,0.13,0.21,0.058,0.024,0.16|
0.062,0.22,0.095,0.12,0.21,0.028,0.19,0.072|
0.1,0.26,0.026,0.072,0.11,0.17,0.21,0.051|
0.085,0.061,0.14,0.19,0.13,0.14,0.051,0.21|
0.1,0.2,0.041,0.12,0.15,0.035,0.13,0.22|
0.2,0.22,0.15,0.069,0.12,0.056,0.038,0.14|
0.074,0.17,0.18,0.14,0.14,0.19,0.064,0.04|
0.088,0.16,0.21,0.046,0.21,0.012,0.1,0.17|
];
transition_y2=[
0.11,0.013,0.25,0.11,0.25,0.13,0.12,0.015|
0.057,0.21,0.024,0.16,0.18,0.058,0.16,0.15|
0.091,0.095,0.22,0.0081,0.094,0.16,0.2,0.13|
0.11,0.029,0.036,0.16,0.12,0.27,0.056,0.22|
0.12,0.17,0.23,0.071,0.13,0.13,0.036,0.12|
0.2,0.17,0.18,0.15,0.071,0.0054,0.046,0.17|
0.21,0.2,0.014,0.098,0.0026,0.17,0.18,0.13|
0.049,0.047,0.14,0.2,0.19,0.035,0.089,0.26|
];
transition_y3=[
0.06,0.078,0.22,0.094,0.15,0.076,0.19,0.14|
0.12,0.016,0.087,0.19,0.26,0.054,0.22,0.053|
0.073,0.079,0.24,0.12,0.071,0.22,0.04,0.16|
0.19,0.066,0.14,0.085,0.2,0.096,0.027,0.19|
0.019,0.097,0.2,0.13,0.1,0.19,0.19,0.061|
0.058,0.16,0.12,0.16,0.13,0.086,0.16,0.13|
0.21,0.13,0.22,0.013,0.014,0.16,0.21,0.042|
0.17,0.24,0.067,0.11,0.08,0.11,0.15,0.081|
];
transition_y4=[
0.17,0.059,0.012,0.19,0.2,0.047,0.12,0.19|
0.15,0.24,0.2,0.19,0.089,0.11,0.019,0.0099|
0.2,0.046,0.063,0.073,0.011,0.14,0.27,0.2|
0.045,0.21,0.22,0.036,0.11,0.11,0.1,0.17|
0.056,0.02,0.18,0.13,0.19,0.2,0.17,0.045|
0.11,0.18,0.026,0.08,0.14,0.2,0.19,0.073|
0.18,0.16,0.048,0.0064,0.2,0.1,0.2,0.11|
0.15,0.23,0.2,0.22,0.0099,0.091,0.028,0.082|
];
transition_y5=[
0.17,0.16,0.13,0.074,0.17,0.052,0.074,0.16|
0.11,0.17,0.061,0.18,0.05,0.12,0.16,0.15|
0.2,0.28,0.081,0.0065,0.15,0.14,0.13,0.019|
0.18,0.14,0.057,0.19,0.14,0.11,0.14,0.034|
0.22,0.19,0.029,0.26,0.035,0.18,0.025,0.062|
0.12,0.27,0.051,0.0092,0.024,0.13,0.088,0.31|
0.045,0.041,0.088,0.19,0.19,0.18,0.23,0.04|
0.22,0.11,0.13,0.0061,0.066,0.18,0.18,0.12|
];
transition_y6=[
0.2,0.19,0.063,0.21,0.028,0.11,0.053,0.15|
0.15,0.19,0.058,0.059,0.21,0.096,0.097,0.15|
0.18,0.0053,0.19,0.0067,0.11,0.17,0.19,0.15|
0.2,0.0091,0.079,0.14,0.2,0.028,0.16,0.19|
0.15,0.032,0.18,0.14,0.077,0.14,0.15,0.14|
0.28,0.1,0.0056,0.23,0.014,0.1,0.088,0.18|
0.15,0.096,0.24,0.2,0.046,0.051,0.019,0.2|
0.25,0.13,0.082,0.18,0.093,0.0053,0.18,0.078|
];
transition_y7=[
0.09,0.18,0.12,0.17,0.17,0.17,0.012,0.091|
0.15,0.14,0.17,0.085,0.039,0.16,0.18,0.077|
0.024,0.14,0.12,0.18,0.17,0.13,0.075,0.16|
0.15,0.12,0.099,0.018,0.23,0.093,0.23,0.061|
0.11,0.17,0.13,0.073,0.13,0.18,0.12,0.077|
0.17,0.13,0.1,0.15,0.19,0.036,0.16,0.059|
0.0064,0.17,0.086,0.061,0.23,0.097,0.23,0.13|
0.027,0.13,0.12,0.14,0.046,0.2,0.19,0.15|
];
transition_y8=[
0.03,0.051,0.043,0.22,0.055,0.22,0.15,0.23|
0.11,0.094,0.065,0.2,0.057,0.088,0.17,0.21|
0.18,0.13,0.023,0.19,0.2,0.13,0.056,0.097|
0.13,0.15,0.13,0.13,0.09,0.074,0.23,0.073|
0.019,0.16,0.27,0.0041,0.018,0.21,0.044,0.28|
0.013,0.16,0.073,0.14,0.16,0.14,0.16,0.14|
0.18,0.2,0.083,0.22,0.023,0.062,0.15,0.073|
0.14,0.1,0.08,0.048,0.2,0.088,0.16,0.18|
];
transition_y9=[
0.066,0.23,0.11,0.13,0.16,0.063,0.034,0.21|
0.19,0.15,0.23,0.11,0.19,0.0055,0.037,0.085|
0.077,0.16,0.19,0.11,0.076,0.076,0.12,0.19|
0.012,0.17,0.063,0.14,0.17,0.16,0.12,0.15|
0.042,0.3,0.11,0.16,0.22,0.06,0.09,0.017|
0.023,0.0027,0.21,0.17,0.041,0.24,0.22,0.097|
0.17,0.065,0.081,0.042,0.076,0.24,0.1,0.23|
0.18,0.18,0.2,0.08,0.16,0.1,0.054,0.04|
];
